c Random generated cnf formula, satisfiable: false
p cnf 10 50
3 8 2 0
-5 3 -7 0
1 6 5 0
-6 -10 -5 0
8 -9 -4 0
-7 1 -8 0
7 -8 6 0
7 2 5 0
-1 2 8 0
10 -7 -5 0
6 -1 3 0
-7 -9 -2 0
-1 -4 7 0
3 -9 -1 0
-1 -7 6 0
-8 1 -2 0
-7 6 -2 0
-4 -2 -10 0
-3 -1 -7 0
3 -4 6 0
1 6 -10 0
-2 1 -6 0
5 6 3 0
-10 8 6 0
1 3 -4 0
2 -8 -6 0
-9 -8 7 0
-5 9 -4 0
-2 10 9 0
-5 4 1 0
-10 -6 -7 0
-7 1 -8 0
-7 -1 10 0
10 9 -3 0
-2 -6 -10 0
10 2 -9 0
6 7 -3 0
-8 10 1 0
-3 -1 2 0
8 4 -3 0
2 -1 -7 0
9 4 -3 0
2 -8 -7 0
-4 -6 9 0
-7 10 6 0
10 -7 -2 0
-7 -6 3 0
-7 -2 -1 0
-2 10 1 0
-2 -8 -6 0
